Academic license - for non-commercial use only - expires 2022-11-10
Using license file /home/benedond/Apps/gurobi/gurobi950/gurobi.lic
Using gurobi.env file
Set parameter Threads to value 1
Changed value of parameter TimeLimit to 300.0
   Prev: inf  Min: 0.0  Max: inf  Default: inf
Gurobi Optimizer version 9.1.2 build v9.1.2rc0 (linux64)
Thread count: 2 physical cores, 4 logical processors, using up to 1 threads
Optimize a model with 880 rows, 820 columns and 3258 nonzeros
Model fingerprint: 0x498e2dd8
Variable types: 20 continuous, 800 integer (800 binary)
Coefficient statistics:
  Matrix range     [1e+00, 3e+02]
  Objective range  [4e+01, 3e+02]
  Bounds range     [1e+00, 1e+00]
  RHS range        [1e+00, 7e+02]
Presolve removed 608 rows and 573 columns
Presolve time: 0.11s
Presolved: 272 rows, 247 columns, 951 nonzeros
Variable types: 12 continuous, 235 integer (235 binary)

Root relaxation: objective 2.090000e+03, 110 iterations, 0.00 seconds

    Nodes    |    Current Node    |     Objective Bounds      |     Work
 Expl Unexpl |  Obj  Depth IntInf | Incumbent    BestBd   Gap | It/Node Time

     0     0 2090.00000    0   16          - 2090.00000      -     -    0s
H    0     0                    2010.0000000 2090.00000  3.98%     -    0s
H    0     0                    2040.0000000 2090.00000  2.45%     -    0s
     0     0 2090.00000    0   25 2040.00000 2090.00000  2.45%     -    0s
H    0     0                    2043.0000000 2090.00000  2.30%     -    0s
     0     0 2090.00000    0   10 2043.00000 2090.00000  2.30%     -    0s
H    0     0                    2066.0000000 2090.00000  1.16%     -    0s
H    0     0                    2067.0000000 2090.00000  1.11%     -    0s
     0     0 2090.00000    0   18 2067.00000 2090.00000  1.11%     -    0s
H    0     0                    2070.0000000 2090.00000  0.97%     -    0s
     0     0 2090.00000    0   15 2070.00000 2090.00000  0.97%     -    0s
     0     0 2090.00000    0   13 2070.00000 2090.00000  0.97%     -    0s
     0     0 2090.00000    0   20 2070.00000 2090.00000  0.97%     -    0s
H    0     0                    2081.0000000 2090.00000  0.43%     -    0s
     0     0 2090.00000    0   23 2081.00000 2090.00000  0.43%     -    0s
     0     0 2090.00000    0   23 2081.00000 2090.00000  0.43%     -    0s
     0     0 2090.00000    0   13 2081.00000 2090.00000  0.43%     -    0s
     0     0 2090.00000    0   13 2081.00000 2090.00000  0.43%     -    0s
     0     0 2090.00000    0   14 2081.00000 2090.00000  0.43%     -    0s
     0     0 2090.00000    0   13 2081.00000 2090.00000  0.43%     -    0s
     0     0 2090.00000    0   13 2081.00000 2090.00000  0.43%     -    0s
     0     0 2090.00000    0   16 2081.00000 2090.00000  0.43%     -    0s
     0     0 2090.00000    0   17 2081.00000 2090.00000  0.43%     -    0s
     0     0 2090.00000    0   13 2081.00000 2090.00000  0.43%     -    0s
     0     2 2090.00000    0   12 2081.00000 2090.00000  0.43%     -    0s

Cutting planes:
  Gomory: 5
  Cover: 98
  Implied bound: 2
  Clique: 1
  MIR: 51
  GUB cover: 1
  Inf proof: 1
  Relax-and-lift: 13

Explored 339 nodes (5539 simplex iterations) in 0.32 seconds
Thread count was 1 (of 4 available processors)

Solution count 7: 2081 2070 2067 ... 2010

Optimal solution found (tolerance 1.00e-04)
Best objective 2.081000000000e+03, best bound 2.081000000000e+03, gap 0.0000%
